
Gurobi 13.0.2 (win64) logging started Fri Jul 24 06:28:19 2026

Set parameter LogFile to value "E:\codes\ExactEBRP\results\gf_c0_mechanism_transfer_c5_round30\runs\stage1__moderate_seed3302__c5_candidate__300s\external\native_logs\L0.1.0.1.0.1.1.0_terminal_mip.gurobi.log"
Gurobi Optimizer version 13.0.2 build v13.0.2rc1 (win64 - Windows 10.0 (19045.2))

CPU model: 12th Gen Intel(R) Core(TM) i7-12700KF, instruction set [SSE2|AVX|AVX2]
Thread count: 12 physical cores, 20 logical processors, using up to 1 threads

Non-default parameters:
TimeLimit  1.7469467880000002e+02
MIPGap  0
MIPGapAbs  0
LogToConsole  0
Threads  1

Optimize a model with 11903 rows, 3374 columns and 67328 nonzeros (Min)
Model fingerprint: 0x370a4905
Model has 21 linear objective coefficients
Variable types: 1684 continuous, 1690 integer (1490 binary)
Coefficient statistics:
  Matrix range     [7e-03, 1e+04]
  Objective range  [7e-03, 1e+00]
  Bounds range     [3e-02, 3e+02]
  RHS range        [3e-02, 5e+04]

Presolve removed 922 rows and 77 columns
Presolve time: 0.21s
Presolved: 10981 rows, 3297 columns, 73174 nonzeros
Variable types: 1633 continuous, 1664 integer (1473 binary)

Root relaxation: objective 1.395663e-01, 3213 iterations, 0.18 seconds (0.45 work units)

    Nodes    |    Current Node    |     Objective Bounds      |     Work
 Expl Unexpl |  Obj  Depth IntInf | Incumbent    BestBd   Gap | It/Node Time

     0     0    0.13957    0  215          -    0.13957      -     -    0s
     0     0    0.13976    0  326          -    0.13976      -     -    1s
     0     0    0.15011    0  331          -    0.15011      -     -    2s
     0     0    0.15013    0  329          -    0.15013      -     -    2s
     0     0    0.15044    0  326          -    0.15044      -     -    2s
     0     0    0.17363    0  338          -    0.17363      -     -    3s
     0     0    0.17368    0  329          -    0.17368      -     -    3s
     0     0    0.17430    0  330          -    0.17430      -     -    3s
     0     0    0.17736    0  357          -    0.17736      -     -    4s
     0     0    0.17837    0  330          -    0.17837      -     -    4s
     0     0    0.18077    0  372          -    0.18077      -     -    5s
     0     0    0.18138    0  326          -    0.18138      -     -    5s
     0     0    0.18271    0  344          -    0.18271      -     -    6s
     0     0    0.18328    0  360          -    0.18328      -     -    6s
     0     0    0.18386    0  325          -    0.18386      -     -    7s
     0     0    0.18425    0  375          -    0.18425      -     -    8s
     0     0    0.18456    0  332          -    0.18456      -     -    8s
     0     0    0.18476    0  328          -    0.18476      -     -    9s
     0     0    0.18494    0  302          -    0.18494      -     -    9s
     0     0    0.18511    0  329          -    0.18511      -     -    9s
     0     0    0.18546    0  326          -    0.18546      -     -   10s
     0     0    0.18551    0  330          -    0.18551      -     -   11s
     0     0    0.18605    0  312          -    0.18605      -     -   11s
     0     0    0.18627    0  318          -    0.18627      -     -   12s
     0     0    0.18641    0  342          -    0.18641      -     -   13s
     0     0    0.18644    0  353          -    0.18644      -     -   13s
     0     0    0.18647    0  354          -    0.18647      -     -   14s
     0     0    0.18649    0  322          -    0.18649      -     -   14s
     0     0    0.18652    0  360          -    0.18652      -     -   15s
     0     0    0.18652    0  352          -    0.18652      -     -   15s
     0     0    0.18652    0  345          -    0.18652      -     -   16s
     0     2    0.18652    0  344          -    0.18652      -     -   17s

Cutting planes:
  Learned: 19
  Cover: 38
  Implied bound: 76
  Clique: 15
  MIR: 161
  Flow cover: 57
  Network: 17
  RLT: 5
  Relax-and-lift: 18
  BQP: 2

Explored 5 nodes (66549 simplex iterations) in 19.05 seconds (37.26 work units)
Thread count was 1 (of 20 available processors)

Solution count 0

Model is infeasible
Best objective -, best bound -, gap -

User-callback calls 5141, time in user-callback 0.00 sec
